189242.0
1643
1 2 6 11 12 13 15 16 19 21 22 25 28 29 35 37 38 39 43 45 46 52 55 59 61 62 64 65 66 68 69 70 71 72 84 88 91 93 96 98 99 102 107 108 109 111 113 114 116 120 121 123 127 129 132 133 134 139 140 143 149 151 152 154 157 158 161 167 168 170 173 174 175 181 183 185 186 187 189 192 196 199 